&CONTROL
calculation = 'relax'
nstep = 100
outdir = './output/'
prefix = 'VLAB'
pseudo_dir = '/home/vraman/pseudo'
restart_mode = 'from_scratch'
tprnfor = .TRUE.
wf_collect = .TRUE.
/

&SYSTEM
degauss = 0.002
ecutwfc = 30
ibrav = 0
nat = 50
ntyp = 1
occupations = 'smearing'
/

&ELECTRONS
electron_maxstep = 200
mixing_beta = 0.5
scf_must_converge = .FALSE.
/

&IONS
ion_dynamics = 'bfgs'
upscale = 10
/

ATOMIC_SPECIES
C 12.011 C.pbe-n-kjpaw_psl.1.0.0.UPF

K_POINTS {automatic}
5 5 1 0 0 0

CELL_PARAMETERS {angstrom}
  12.334505838   0.000000000  -0.000000000
  -6.167252919  10.683507862  -0.000000000
  -0.000000000  -0.000000000  19.998170909

ATOMIC_POSITIONS {angstrom}
C        1.233395257   0.711382484   9.999085455
C       -0.000000000   1.423633052   9.999085455
C       -0.000000000   2.848074279   9.999085455
C       -1.233469912   3.560449298   9.999085455
C       -1.233530727   4.984869009   9.999085455
C       -2.466954617   5.697072114   9.999085455
C       -2.466900776   7.121424011   9.999085455
C       -3.700323975   7.833783843   9.999085455
C       -3.700386238   9.258246645   9.999085455
C       -4.933860293   9.970540213   9.999085455
C        3.700393872   0.711419386   9.999085455
C        2.466863668   1.423680079   9.999085455
C        2.466929566   2.848150253   9.999085455
C        1.233469912   3.560449298   9.999085455
C        1.233530727   4.984869009   9.999085455
C       -0.000000000   5.697077157   9.999085455
C       -0.000000000   7.121525662   9.999085455
C       -1.233478450   7.833836894   9.999085455
C       -1.233370669   9.258271117   9.999085455
C       -2.466854370   9.970500163   9.999085455
C        6.167252919   0.711349041   9.999085455
C        4.933877767   1.423650115   9.999085455
C        4.933770358   2.848097915   9.999085455
C        3.700346375   3.560505089   9.999085455
C        3.700298702   4.984852249   9.999085455
C        2.466954617   5.697072114   9.999085455
C        2.466900776   7.121424011   9.999085455
C        1.233478450   7.833836894   9.999085455
C        1.233370669   9.258271117   9.999085455
C       -0.000000000   9.970563267   9.999085455
C        8.634111966   0.711419386   9.999085455
C        7.400628071   1.423650115   9.999085455
C        7.400735480   2.848097915   9.999085455
C        6.167252919   3.560407318   9.999085455
C        6.167252919   4.984854343   9.999085455
C        4.933721824   5.697060086   9.999085455
C        4.933782608   7.121477483   9.999085455
C        3.700323975   7.833783843   9.999085455
C        3.700386238   9.258246645   9.999085455
C        2.466854370   9.970500163   9.999085455
C       11.101110581   0.711382484   9.999085455
C        9.867642170   1.423680079   9.999085455
C        9.867576272   2.848150253   9.999085455
C        8.634159463   3.560505089   9.999085455
C        8.634207136   4.984852249   9.999085455
C        7.400784014   5.697060086   9.999085455
C        7.400723230   7.121477483   9.999085455
C        6.167252919   7.833860528   9.999085455
C        6.167252919   9.258290384   9.999085455
C        4.933860293   9.970540213   9.999085455
