&CONTROL
calculation = 'vc-relax'
nstep = 100
outdir = './output/'
prefix = 'Grap'
pseudo_dir = 'C:\Program Files\Quantum ESPRESSO 64-bit 5.2.1-serial\pseudo'
restart_mode = 'from_scratch'
wf_collect = .TRUE.
/

&SYSTEM
degauss = 0.002
ecutwfc = 50
ibrav = 0
nat = 50
ntyp = 1
occupations = 'smearing'
/

&ELECTRONS
electron_maxstep = 100
mixing_beta = 0.5
scf_must_converge = .FALSE.
/

&IONS
ion_dynamics = 'bfgs'
upscale = 10
/

&CELL
cell_dofree = 'all'
cell_dynamics = 'bfgs'
/

ATOMIC_SPECIES
C 12.011 C.pbe-n-kjpaw_psl.1.0.0.UPF

K_POINTS {automatic}
5 5 1 0 0 0

CELL_PARAMETERS {angstrom}
12.3050000000 0.0000000000 0.0000000000
-6.1525000000 10.6643333333 0.0000000000
0.0000000000 0.0000000000 20.0000000000

ATOMIC_POSITIONS {angstrom}
C 1.2305 0.71042951 10
C 0 1.42085901 10
C 0 2.84329617 10
C -1.2305 3.55372568 10
C -1.2305 4.97616284 10
C -2.461 5.68659235 10
C -2.461 7.10902951 10
C -3.6915 7.81945901 10
C -3.6915 9.24189617 10
C -4.922 9.95232568 10
C 3.6915 0.71042951 10
C 2.461 1.42085901 10
C 2.461 2.84329617 10
C 1.2305 3.55372568 10
C 1.2305 4.97616284 10
C 0 5.68659235 10
C 0 7.10902951 10
C -1.2305 7.81945901 10
C -1.2305 9.24189617 10
C -2.461 9.95232568 10
C 6.1525 0.71042951 10
C 4.922 1.42085901 10
C 4.922 2.84329617 10
C 3.6915 3.55372568 10
C 3.6915 4.97616284 10
C 2.461 5.68659235 10
C 2.461 7.10902951 10
C 1.2305 7.81945901 10
C 1.2305 9.24189617 10
C 0 9.95232568 10
C 8.6135 0.71042951 10
C 7.383 1.42085901 10
C 7.383 2.84329617 10
C 6.1525 3.55372568 10
C 6.1525 4.97616284 10
C 4.922 5.68659235 10
C 4.922 7.10902951 10
C 3.6915 7.81945901 10
C 3.6915 9.24189617 10
C 2.461 9.95232568 10
C 11.0745 0.71042951 10
C 9.844 1.42085901 10
C 9.844 2.84329617 10
C 8.6135 3.55372568 10
C 8.6135 4.97616284 10
C 7.383 5.68659235 10
C 7.383 7.10902951 10
C 6.1525 7.81945901 10
C 6.1525 9.24189617 10
C 4.922 9.95232568 10
