&CONTROL
calculation = 'scf'
outdir = './output/'
prefix = 'graph'
pseudo_dir = '/home/vraman/pseudo'
restart_mode = 'from_scratch'
wf_collect = .TRUE.
/

&SYSTEM
degauss = 0.002
ecutwfc = 30
ibrav = 0
nat = 50
nspin = 2
ntyp = 1
occupations = 'smearing'
starting_magnetization(1) = 1
/

&ELECTRONS
electron_maxstep = 200
mixing_beta = 0.5
scf_must_converge = .TRUE.
/

ATOMIC_SPECIES
C 12.011 C.pbe-n-kjpaw_psl.1.0.0.UPF

K_POINTS {automatic}
5 5 1 0 0 0

CELL_PARAMETERS {angstrom}
  12.334505838   0.000000000  -0.000000000
  -6.167252919  10.683507862  -0.000000000
  -0.000000000  -0.000000000  19.998170909
ATOMIC_POSITIONS {angstrom}
C        1.234919281   0.712196962   9.999085455
C        0.000000000   1.425325912   9.999085455
C        0.000000000   2.851067872   9.999085455
C       -1.234492513   3.562894202   9.999085455
C       -1.233259719   4.986999252   9.999085455
C       -2.466994906   5.697103131   9.999085455
C       -2.465015575   7.120701636   9.999085455
C       -3.698758484   7.831658738   9.999085455
C       -3.697796510   9.256720263   9.999085455
C       -4.932345374   9.969574976   9.999085455
C        3.703025475   0.711728733   9.999085455
C        2.469464941   1.425127530   9.999085455
C        2.468569826   2.850251882   9.999085455
C        1.234492513   3.562894202   9.999085455
C        1.233259719   4.986999252   9.999085455
C        0.000000000   5.698472763   9.999085455
C        0.000000000   7.121608439   9.999085455
C       -1.232335107   7.833152520   9.999085455
C       -1.231737138   9.256999379   9.999085455
C       -2.464245106   9.970098700   9.999085455
C        6.167252919   0.711330313   9.999085455
C        4.935537209   1.424918018   9.999085455
C        4.934987155   2.848800508   9.999085455
C        3.702324977   3.561298566   9.999085455
C        3.700345274   4.984915137   9.999085455
C        2.466994906   5.697103131   9.999085455
C        2.465015575   7.120701636   9.999085455
C        1.232335107   7.833152520   9.999085455
C        1.231737138   9.256999379   9.999085455
C        0.000000000   9.970531369   9.999085455
C        8.631480363   0.711728733   9.999085455
C        7.398968629   1.424918018   9.999085455
C        7.399518683   2.848800508   9.999085455
C        6.167252919   3.560477730   9.999085455
C        6.167252919   4.983593410   9.999085455
C        4.934033368   5.695036364   9.999085455
C        4.932787596   7.119067683   9.999085455
C        3.698758484   7.831658738   9.999085455
C        3.697796510   9.256720263   9.999085455
C        2.464245106   9.970098700   9.999085455
C       11.099586557   0.712196962   9.999085455
C        9.865040897   1.425127530   9.999085455
C        9.865936012   2.850251882   9.999085455
C        8.632180861   3.561298566   9.999085455
C        8.634160564   4.984915137   9.999085455
C        7.400472470   5.695036364   9.999085455
C        7.401718242   7.119067683   9.999085455
C        6.167252919   7.830800366   9.999085455
C        6.167252919   9.256475386   9.999085455
C        4.932345374   9.969574976   9.999085455
